WARNING: for repeatability, setting FPU to use double precision
============================[ Problem Statistics ]=============================
|                                                                             |
|  Number of variables:            50                                         |
|  Number of clauses:             218                                         |
|  Parse time:                   0.00 s                                       |
|                                                                             |
============================[ Search Statistics ]==============================
| Conflicts |          ORIGINAL         |          LEARNT          | Progress |
|           |    Vars  Clauses Literals |    Limit  Clauses Lit/Cl |          |
===============================================================================
===============================================================================
restarts              : 1
conflicts             : 30             (21277 /sec)
decisions             : 38             (0.00 % random) (26950 /sec)
propagations          : 502            (356028 /sec)
conflict literals     : 139            (12.03 % deleted)
Memory used           : 20.00 MB
CPU time              : 0.00141 s

SATISFIABLE
